networks/zoo_104_2121/zoo_104_2121.txt
Number of groups: 56
Flow 14: {1 49} {49 15} {15 67} 
Flow 23: {8 24} {24 76} 
Flow 38: {4 39} {39 91} 
Flow 44: {49 16} {16 45} {45 97} 
Flow 70: {2 12} {12 7} {7 8} {8 20} {20 72} 
Flow 85: {12 37} Flow 165: {4 1} {1 18} {18 70} 
Flow 207: {5 8} {8 9} {9 61} 
Flow 217: {10 37} {37 19} {19 71} 
Flow 258: {6 7} {7 12} {12 64} 
Flow 411: {9 8} {8 33} {33 85} 
Flow 481: {50 1} {1 4} {4 56} 
Flow 490: {11 50} {50 48} {48 17} {17 69} 
Flow 548: {7 10} {10 38} {38 90} 
Flow 586: {13 10} {10 7} {7 6} {6 27} {27 79} 
Flow 614: {14 8} {8 5} {5 57} 
Flow 675: {15 49} {49 30} {30 82} 
Flow 738: {16 46} {46 98} 
Flow 787: {17 48} {48 49} {49 44} {44 96} 
Flow 817: {18 1} {1 12} {12 37} {37 89} 
Flow 827: {37 12} {12 2} {2 54} 
Flow 834: {19 37} {37 10} {10 62} 
Flow 861: {12 1} {1 50} {50 102} 
Flow 869: {20 8} {8 7} {7 59} 
Flow 912: {21 3} {3 52} {52 29} {29 81} 
Flow 933: {22 8} {8 49} {49 1} {1 53} 
Flow 999: {23 49} {49 42} {42 94} 
Flow 1014: {24 8} {8 6} {6 58} 
Flow 1063: {25 50} {50 49} {49 34} {34 86} 
Flow 1072: {48 47} Flow 1083: {26 4} 
Flow 1097: {27 6} {6 8} {8 14} {14 66} 
Flow 1142: {28 8} {8 10} {10 13} {13 65} 
Flow 1176: {29 52} {52 49} {49 36} {36 88} 
Flow 1221: {30 49} {49 41} {41 93} 
Flow 1253: {31 21} {21 8} {8 22} {22 74} 
Flow 1290: {52 46} {46 16} {16 68} 
Flow 1302: {32 52} {52 35} {35 87} 
Flow 1322: {33 8} {8 60} 
Flow 1371: {34 49} {49 101} 
Flow 1374: {35 52} {52 3} {3 55} 
Flow 1416: {36 49} {49 8} {8 28} {28 80} 
Flow 1514: {38 10} {10 8} {8 21} {21 31} {31 83} 
Flow 1533: {39 4} {4 49} {49 43} {43 95} 
Flow 1569: {12 37} Flow 1576: {48 47} Flow 1580: {40 49} {49 51} {51 103} 
Flow 1617: {41 49} {49 48} {48 100} 
Flow 1642: {42 49} {49 4} {4 26} {26 78} 
Flow 1656: {48 47} 
Flow 1701: {43 49} {49 40} {40 92} 
Flow 1735: {44 49} {49 23} {23 75} 
Flow 1804: {45 17} {17 47} {47 99} 
Flow 1809: {16 49} {49 52} {52 104} 
Flow 1820: {46 49} {49 50} {50 11} {11 63} 
Flow 1839: {46 52} {52 32} {32 84} 
Flow 1871: {47 17} {17 45} {45 16} 
Flow 1879: {47 48} {48 50} {50 25} {25 77} 
Flow 2065: {51 49} {49 46} 
Flow 2091: {3 21} {21 73} 
Time taken running everything: 121 seconds
