networks/zoo_104_2121/zoo_104_2121.sol
<?xml version = "1.0" encoding="UTF-8" standalone="yes"?>
<CPLEXSolution version="1.2">
 <header
   problemName="networks/zoo_104_2121/zoo_104_2121.lp"
   solutionName="incumbent"
   solutionIndex="-1"
   objectiveValue="56"
   solutionTypeValue="3"
   solutionTypeString="primal"
   solutionStatusValue="101"
   solutionStatusString="integer optimal solution"
   solutionMethodString="mip"
   primalFeasible="1"
   dualFeasible="1"
   MIPNodes="1152"
   MIPIterations="76677"
   writeLevel="3"/>
 <quality
   epInt="1.0000000000000001e-05"
   epRHS="9.9999999999999995e-07"
   maxIntInfeas="1.000000082740371e-09"
   maxPrimalInfeas="6.000000496442226e-09"
   maxX="4"
   maxSlack="10"/>
 <variables>
  <variable name="Y(38,39)" index="3886" value="1"/>
  <variable name="Y(69,19)" index="7090" value="1"/>
  <variable name="Y(158,11)" index="16338" value="1"/>
  <variable name="Y(225,28)" index="23323" value="1"/>
  <variable name="Y(256,10)" index="26529" value="1"/>
  <variable name="Y(402,20)" index="41723" value="1"/>
  <variable name="Y(483,7)" index="50134" value="1"/>
  <variable name="Y(508,48)" index="52775" value="1"/>
  <variable name="Y(534,24)" index="55455" value="1"/>
  <variable name="Y(597,38)" index="62021" value="1"/>
  <variable name="Y(639,33)" index="66384" value="1"/>
  <variable name="Y(679,34)" index="70545" value="1"/>
  <variable name="Y(733,41)" index="76168" value="1"/>
  <variable name="Y(768,25)" index="79792" value="1"/>
  <variable name="Y(789,16)" index="81967" value="1"/>
  <variable name="Y(821,48)" index="85327" value="1"/>
  <variable name="Y(827,2)" index="85905" value="1"/>
  <variable name="Y(831,6)" index="86325" value="1"/>
  <variable name="Y(875,22)" index="90917" value="1"/>
  <variable name="Y(912,29)" index="94772" value="1"/>
  <variable name="Y(942,13)" index="97876" value="1"/>
  <variable name="Y(1008,51)" index="104778" value="1"/>
  <variable name="Y(1018,12)" index="105779" value="1.00000000025"/>
  <variable name="Y(1024,21)" index="106412" value="1"/>
  <variable name="Y(1040,4)" index="108059" value="1"/>
  <variable name="Y(1068,42)" index="111009" value="1"/>
  <variable name="Y(1078,26)" index="112033" value="1"/>
  <variable name="Y(1132,52)" index="117675" value="1"/>
  <variable name="Y(1139,8)" index="118359" value="1"/>
  <variable name="Y(1162,3)" index="120746" value="1"/>
  <variable name="Y(1217,36)" index="126499" value="1"/>
  <variable name="Y(1237,5)" index="128548" value="1"/>
  <variable name="Y(1302,35)" index="135338" value="1"/>
  <variable name="Y(1333,27)" index="138554" value="1"/>
  <variable name="Y(1369,46)" index="142317" value="1"/>
  <variable name="Y(1380,16)" index="143431" value="1"/>
  <variable name="Y(1427,40)" index="148343" value="1"/>
  <variable name="Y(1448,9)" index="150496" value="1"/>
  <variable name="Y(1457,18)" index="151441" value="1"/>
  <variable name="Y(1520,37)" index="158012" value="1"/>
  <variable name="Y(1533,43)" index="159370" value="1"/>
  <variable name="Y(1573,44)" index="163531" value="1"/>
  <variable name="Y(1614,45)" index="167796" value="1"/>
  <variable name="Y(1642,26)" index="170689" value="1"/>
  <variable name="Y(1673,12)" index="173899" value="-2.5000002068509275e-10"/>
  <variable name="Y(1684,23)" index="175054" value="1"/>
  <variable name="Y(1757,49)" index="182672" value="1"/>
  <variable name="Y(1804,47)" index="187558" value="1"/>
  <variable name="Y(1839,32)" index="191183" value="1"/>
  <variable name="Y(1853,50)" index="192657" value="1"/>
  <variable name="Y(1870,15)" index="194390" value="1"/>
  <variable name="Y(1872,17)" index="194600" value="1"/>
  <variable name="Y(2046,48)" index="212727" value="1"/>
  <variable name="Y(2053,30)" index="213437" value="1"/>
  <variable name="Y(2071,1)" index="215280" value="1"/>
  <variable name="Y(2084,14)" index="216645" value="1"/>
  <variable name="Y(2101,31)" index="218430" value="1"/>
  <variable name="X(1,4,1040)" index="221623" value="1"/>
  <variable name="X(1,12,483)" index="223187" value="1"/>
  <variable name="X(1,18,1457)" index="226282" value="1"/>
  <variable name="X(1,49,821)" index="227767" value="1"/>
  <variable name="X(1,50,158)" index="229225" value="1"/>
  <variable name="X(1,53,2071)" index="233259" value="1"/>
  <variable name="X(2,12,69)" index="233378" value="1"/>
  <variable name="X(2,54,827)" index="236257" value="1"/>
  <variable name="X(3,21,2101)" index="239652" value="1"/>
  <variable name="X(3,52,912)" index="240584" value="1"/>
  <variable name="X(3,55,1162)" index="242955" value="1"/>
  <variable name="X(4,1,158)" index="244072" value="1"/>
  <variable name="X(4,26,1642)" index="247677" value="1"/>
  <variable name="X(4,39,38)" index="248194" value="1"/>
  <variable name="X(4,49,1533)" index="251810" value="1"/>
  <variable name="X(4,56,1040)" index="253438" value="1"/>
  <variable name="X(5,8,225)" index="254744" value="1"/>
  <variable name="X(5,57,1237)" index="257877" value="1"/>
  <variable name="X(6,7,256)" index="259017" value="1"/>
  <variable name="X(6,8,1132)" index="262014" value="1"/>
  <variable name="X(6,27,1333)" index="264336" value="1"/>
  <variable name="X(6,58,831)" index="265955" value="1"/>
  <variable name="X(7,6,831)" index="268076" value="1"/>
  <variable name="X(7,8,534)" index="269900" value="1"/>
  <variable name="X(7,10,256)" index="271743" value="1"/>
  <variable name="X(7,12,1018)" index="274626" value="1"/>
  <variable name="X(7,59,483)" index="276212" value="1"/>
  <variable name="X(8,5,1237)" index="279087" value="1"/>
  <variable name="X(8,6,1333)" index="281304" value="1"/>
  <variable name="X(8,7,393)" index="282485" value="-2.5000002068509275e-10"/>
  <variable name="X(8,7,1018)" index="283110" value="1.00000000025"/>
  <variable name="X(8,9,1448)" index="285661" value="1"/>
  <variable name="X(8,10,942)" index="287276" value="1"/>
  <variable name="X(8,14,2084)" index="290539" value="1"/>
  <variable name="X(8,20,402)" index="290978" value="1"/>
  <variable name="X(8,21,1024)" index="293721" value="1"/>
  <variable name="X(8,22,875)" index="295693" value="1"/>
  <variable name="X(8,24,534)" index="297473" value="1"/>
  <variable name="X(8,28,225)" index="299285" value="1"/>
  <variable name="X(8,33,639)" index="301820" value="1"/>
  <variable name="X(8,49,1132)" index="304434" value="1"/>
  <variable name="X(8,60,1139)" index="306562" value="1"/>
  <variable name="X(9,8,402)" index="307946" value="1"/>
  <variable name="X(9,61,1448)" index="311113" value="1"/>
  <variable name="X(10,7,831)" index="312617" value="1"/>
  <variable name="X(10,8,1448)" index="315355" value="1"/>
  <variable name="X(10,13,942)" index="316970" value="1"/>
  <variable name="X(10,37,1520)" index="319669" value="1"/>
  <variable name="X(10,38,597)" index="320867" value="1"/>
  <variable name="X(10,62,256)" index="322647" value="1"/>
  <variable name="X(11,50,508)" index="325020" value="1"/>
  <variable name="X(11,63,158)" index="326791" value="1"/>
  <variable name="X(12,1,1457)" index="330211" value="1"/>
  <variable name="X(12,2,827)" index="331702" value="1"/>
  <variable name="X(12,7,483)" index="333479" value="1"/>
  <variable name="X(12,37,69)" index="335186" value="1"/>
  <variable name="X(12,64,1018)" index="338256" value="1.00000000025"/>
  <variable name="X(12,64,1673)" index="338911" value="-2.5000002068509275e-10"/>
  <variable name="X(13,10,597)" index="339956" value="1"/>
  <variable name="X(13,65,942)" index="342422" value="1"/>
  <variable name="X(14,8,639)" index="344240" value="1"/>
  <variable name="X(14,66,2084)" index="347806" value="1"/>
  <variable name="X(15,49,679)" index="348522" value="1"/>
  <variable name="X(15,67,1870)" index="351834" value="1"/>
  <variable name="X(16,45,1614)" index="353699" value="1"/>
  <variable name="X(16,46,789)" index="354995" value="1"/>
  <variable name="X(16,49,733)" index="357060" value="1"/>
  <variable name="X(16,68,1380)" index="359828" value="1"/>
  <variable name="X(17,45,789)" index="361358" value="1"/>
  <variable name="X(17,47,1804)" index="364494" value="1"/>
  <variable name="X(17,48,768)" index="365579" value="1"/>
  <variable name="X(17,69,1872)" index="368804" value="1"/>
  <variable name="X(18,1,821)" index="369874" value="1"/>
  <variable name="X(18,70,1457)" index="372631" value="1"/>
  <variable name="X(19,37,827)" index="374122" value="1"/>
  <variable name="X(19,71,69)" index="375485" value="1"/>
  <variable name="X(20,8,875)" index="378412" value="1"/>
  <variable name="X(20,72,402)" index="380060" value="1"/>
  <variable name="X(21,3,912)" index="382691" value="1"/>
  <variable name="X(21,8,1237)" index="385137" value="1"/>
  <variable name="X(21,31,2101)" index="388122" value="1"/>
  <variable name="X(21,73,1024)" index="389166" value="1"/>
  <variable name="X(22,8,942)" index="391205" value="1"/>
  <variable name="X(22,74,875)" index="393259" value="1"/>
  <variable name="X(23,49,1008)" index="395513" value="1"/>
  <variable name="X(23,75,1684)" index="398310" value="1"/>
  <variable name="X(24,8,1018)" index="399765" value="1"/>
  <variable name="X(24,76,534)" index="401402" value="1"/>
  <variable name="X(25,50,1040)" index="404029" value="1"/>
  <variable name="X(25,77,768)" index="405878" value="1"/>
  <variable name="X(26,4,1078)" index="408309" value="1"/>
  <variable name="X(26,78,1642)" index="410994" value="1"/>
  <variable name="X(27,6,1132)" index="412605" value="1"/>
  <variable name="X(27,79,1333)" index="414927" value="1"/>
  <variable name="X(28,8,1139)" index="416854" value="1"/>
  <variable name="X(28,80,225)" index="418061" value="1"/>
  <variable name="X(29,52,1162)" index="421119" value="1"/>
  <variable name="X(29,81,912)" index="422990" value="1"/>
  <variable name="X(30,49,1217)" index="425416" value="1"/>
  <variable name="X(30,82,2053)" index="428373" value="1"/>
  <variable name="X(31,21,1237)" index="429678" value="1"/>
  <variable name="X(31,83,2101)" index="432663" value="1"/>
  <variable name="X(32,52,1302)" index="433985" value="1"/>
  <variable name="X(32,84,1839)" index="436643" value="1"/>
  <variable name="X(33,8,1333)" index="438258" value="1"/>
  <variable name="X(33,85,639)" index="439685" value="1"/>
  <variable name="X(34,49,1369)" index="442536" value="1"/>
  <variable name="X(34,86,679)" index="443967" value="1"/>
  <variable name="X(35,52,1380)" index="446789" value="1"/>
  <variable name="X(35,87,1302)" index="448832" value="1"/>
  <variable name="X(36,49,1427)" index="451078" value="1"/>
  <variable name="X(36,88,1217)" index="452989" value="1"/>
  <variable name="X(37,10,1448)" index="455341" value="1"/>
  <variable name="X(37,12,827)" index="456841" value="1"/>
  <variable name="X(37,19,69)" index="458204" value="1"/>
  <variable name="X(37,89,1520)" index="461776" value="1"/>
  <variable name="X(38,10,1520)" index="463897" value="1"/>
  <variable name="X(38,90,597)" index="465095" value="1"/>
  <variable name="X(39,4,1533)" index="468152" value="1"/>
  <variable name="X(39,91,38)" index="468778" value="1"/>
  <variable name="X(40,49,1573)" index="472434" value="1"/>
  <variable name="X(40,92,1427)" index="474409" value="1"/>
  <variable name="X(41,49,1614)" index="476717" value="1"/>
  <variable name="X(41,93,733)" index="477957" value="1"/>
  <variable name="X(42,49,1642)" index="480987" value="1"/>
  <variable name="X(42,94,1068)" index="482534" value="1"/>
  <variable name="X(43,49,1684)" index="485271" value="1"/>
  <variable name="X(43,95,1533)" index="487241" value="1"/>
  <variable name="X(44,49,1757)" index="489586" value="1"/>
  <variable name="X(44,96,1573)" index="491523" value="1"/>
  <variable name="X(45,16,789)" index="492860" value="1"/>
  <variable name="X(45,17,1804)" index="495996" value="1"/>
  <variable name="X(45,97,1614)" index="497927" value="1"/>
  <variable name="X(46,16,1380)" index="499814" value="1"/>
  <variable name="X(46,49,1853)" index="502408" value="1"/>
  <variable name="X(46,52,1839)" index="504515" value="1"/>
  <variable name="X(46,98,1369)" index="506166" value="1"/>
  <variable name="X(47,17,1872)" index="508790" value="1"/>
  <variable name="X(47,48,1870)" index="510909" value="1"/>
  <variable name="X(47,99,1804)" index="512964" value="1"/>
  <variable name="X(48,17,2046)" index="515327" value="1"/>
  <variable name="X(48,47,821)" index="516223" value="1"/>
  <variable name="X(48,49,1870)" index="519393" value="1"/>
  <variable name="X(48,50,768)" index="520412" value="1"/>
  <variable name="X(48,100,508)" index="522273" value="1"/>
  <variable name="X(49,1,1673)" index="525559" value="-1.000000082740371e-09"/>
  <variable name="X(49,1,2071)" index="525957" value="1.0000000010000001"/>
  <variable name="X(49,4,1642)" index="527649" value="1"/>
  <variable name="X(49,8,2084)" index="530212" value="1"/>
  <variable name="X(49,15,1870)" index="532119" value="1"/>
  <variable name="X(49,16,1614)" index="533984" value="1"/>
  <variable name="X(49,23,1684)" index="536175" value="1"/>
  <variable name="X(49,30,2053)" index="538665" value="1"/>
  <variable name="X(49,34,679)" index="539412" value="1"/>
  <variable name="X(49,36,1217)" index="542071" value="1"/>
  <variable name="X(49,40,1427)" index="544402" value="1"/>
  <variable name="X(49,41,733)" index="545829" value="1"/>
  <variable name="X(49,42,1068)" index="548285" value="1"/>
  <variable name="X(49,43,1533)" index="550871" value="1"/>
  <variable name="X(49,44,1573)" index="553032" value="1"/>
  <variable name="X(49,46,1369)" index="554949" value="1"/>
  <variable name="X(49,48,821)" index="556522" value="1"/>
  <variable name="X(49,50,1853)" index="559675" value="1"/>
  <variable name="X(49,51,1008)" index="560951" value="1"/>
  <variable name="X(49,52,1132)" index="563196" value="1"/>
  <variable name="X(49,101,1757)" index="565942" value="1"/>
  <variable name="X(50,1,1040)" index="567346" value="1"/>
  <variable name="X(50,11,158)" index="568585" value="1"/>
  <variable name="X(50,25,768)" index="571316" value="1"/>
  <variable name="X(50,48,508)" index="573177" value="1"/>
  <variable name="X(50,49,1068)" index="575858" value="1"/>
  <variable name="X(50,102,1853)" index="578764" value="1"/>
  <variable name="X(51,49,2053)" index="581085" value="1"/>
  <variable name="X(51,103,1008)" index="582161" value="1"/>
  <variable name="X(52,3,1162)" index="584436" value="1"/>
  <variable name="X(52,29,912)" index="586307" value="1"/>
  <variable name="X(52,32,1839)" index="589355" value="1"/>
  <variable name="X(52,35,1302)" index="590939" value="1"/>
  <variable name="X(52,46,1380)" index="593138" value="1"/>
  <variable name="X(52,49,2084)" index="595963" value="1"/>
  <variable name="X(52,104,1132)" index="597132" value="1"/>
  <variable name="C(38,39)" index="598257" value="1"/>
  <variable name="C(69,12)" index="598373" value="1"/>
  <variable name="C(69,37)" index="598374" value="2"/>
  <variable name="C(69,19)" index="598375" value="3"/>
  <variable name="C(158,1)" index="598762" value="1"/>
  <variable name="C(158,50)" index="598763" value="2"/>
  <variable name="C(158,11)" index="598764" value="3"/>
  <variable name="C(225,8)" index="599008" value="1"/>
  <variable name="C(225,28)" index="599009" value="2"/>
  <variable name="C(256,7)" index="599128" value="1"/>
  <variable name="C(256,10)" index="599129" value="2"/>
  <variable name="C(393,7)" index="599609" value="-2.5000002068509275e-10"/>
  <variable name="C(402,8)" index="599640" value="1"/>
  <variable name="C(402,20)" index="599641" value="2"/>
  <variable name="C(483,12)" index="599956" value="1"/>
  <variable name="C(483,7)" index="599957" value="2"/>
  <variable name="C(508,50)" index="600073" value="1"/>
  <variable name="C(508,48)" index="600074" value="2"/>
  <variable name="C(534,8)" index="600164" value="1"/>
  <variable name="C(534,24)" index="600165" value="2"/>
  <variable name="C(597,10)" index="600440" value="1"/>
  <variable name="C(597,38)" index="600441" value="2"/>
  <variable name="C(639,8)" index="600619" value="1"/>
  <variable name="C(639,33)" index="600620" value="2"/>
  <variable name="C(679,49)" index="600778" value="1"/>
  <variable name="C(679,34)" index="600779" value="2"/>
  <variable name="C(733,49)" index="600983" value="1"/>
  <variable name="C(733,41)" index="600984" value="2"/>
  <variable name="C(768,48)" index="601128" value="1"/>
  <variable name="C(768,50)" index="601129" value="2"/>
  <variable name="C(768,25)" index="601130" value="3"/>
  <variable name="C(789,45)" index="601225" value="1"/>
  <variable name="C(789,16)" index="601226" value="2"/>
  <variable name="C(821,1)" index="601359" value="1"/>
  <variable name="C(821,49)" index="601360" value="2"/>
  <variable name="C(821,48)" index="601361" value="3"/>
  <variable name="C(827,37)" index="601382" value="1"/>
  <variable name="C(827,12)" index="601383" value="2"/>
  <variable name="C(827,2)" index="601384" value="3"/>
  <variable name="C(831,7)" index="601404" value="1"/>
  <variable name="C(831,6)" index="601405" value="2"/>
  <variable name="C(875,8)" index="601618" value="1"/>
  <variable name="C(875,22)" index="601619" value="2"/>
  <variable name="C(912,3)" index="601759" value="1"/>
  <variable name="C(912,52)" index="601760" value="2"/>
  <variable name="C(912,29)" index="601761" value="3"/>
  <variable name="C(942,8)" index="601872" value="1"/>
  <variable name="C(942,10)" index="601873" value="2"/>
  <variable name="C(942,13)" index="601874" value="3"/>
  <variable name="C(1008,49)" index="602123" value="1"/>
  <variable name="C(1008,51)" index="602124" value="2"/>
  <variable name="C(1018,8)" index="602157" value="1"/>
  <variable name="C(1018,7)" index="602158" value="2.00000000025"/>
  <variable name="C(1018,12)" index="602159" value="3.0000000005"/>
  <variable name="C(1024,21)" index="602181" value="1"/>
  <variable name="C(1040,50)" index="602242" value="1"/>
  <variable name="C(1040,1)" index="602243" value="2"/>
  <variable name="C(1040,4)" index="602244" value="3"/>
  <variable name="C(1068,49)" index="602377" value="1"/>
  <variable name="C(1068,42)" index="602378" value="2"/>
  <variable name="C(1132,6)" index="602672" value="1"/>
  <variable name="C(1132,8)" index="602673" value="2"/>
  <variable name="C(1132,49)" index="602674" value="3"/>
  <variable name="C(1132,52)" index="602675" value="4"/>
  <variable name="C(1139,28)" index="602699" value="3"/>
  <variable name="C(1139,8)" index="602700" value="4"/>
  <variable name="C(1162,52)" index="602787" value="1"/>
  <variable name="C(1162,3)" index="602788" value="2"/>
  <variable name="C(1217,49)" index="603013" value="1"/>
  <variable name="C(1217,36)" index="603014" value="2"/>
  <variable name="C(1237,21)" index="603086" value="1"/>
  <variable name="C(1237,8)" index="603087" value="2"/>
  <variable name="C(1237,5)" index="603088" value="3"/>
  <variable name="C(1302,52)" index="603393" value="1"/>
  <variable name="C(1302,35)" index="603394" value="2"/>
  <variable name="C(1333,8)" index="603511" value="1"/>
  <variable name="C(1333,6)" index="603512" value="2"/>
  <variable name="C(1333,27)" index="603513" value="3"/>
  <variable name="C(1369,49)" index="603654" value="1"/>
  <variable name="C(1369,46)" index="603655" value="2"/>
  <variable name="C(1380,52)" index="603694" value="1"/>
  <variable name="C(1380,46)" index="603695" value="2"/>
  <variable name="C(1380,16)" index="603696" value="3"/>
  <variable name="C(1427,49)" index="603880" value="1"/>
  <variable name="C(1427,40)" index="603881" value="2"/>
  <variable name="C(1448,10)" index="603949" value="1"/>
  <variable name="C(1448,8)" index="603950" value="1.9999999999999998"/>
  <variable name="C(1448,9)" index="603951" value="3"/>
  <variable name="C(1457,1)" index="603986" value="1"/>
  <variable name="C(1457,18)" index="603987" value="2"/>
  <variable name="C(1520,10)" index="604278" value="1"/>
  <variable name="C(1520,37)" index="604279" value="2"/>
  <variable name="C(1533,4)" index="604341" value="1"/>
  <variable name="C(1533,49)" index="604342" value="2"/>
  <variable name="C(1533,43)" index="604343" value="3"/>
  <variable name="C(1573,49)" index="604497" value="1"/>
  <variable name="C(1573,44)" index="604498" value="2"/>
  <variable name="C(1614,49)" index="604648" value="1"/>
  <variable name="C(1614,16)" index="604649" value="2"/>
  <variable name="C(1614,45)" index="604650" value="3"/>
  <variable name="C(1642,49)" index="604749" value="1"/>
  <variable name="C(1642,4)" index="604750" value="2"/>
  <variable name="C(1642,26)" index="604751" value="3"/>
  <variable name="C(1673,1)" index="604865" value="-1.000000082740371e-09"/>
  <variable name="C(1673,12)" index="604866" value="-1.000000082740371e-09"/>
  <variable name="C(1684,49)" index="604909" value="1"/>
  <variable name="C(1684,23)" index="604910" value="2"/>
  <variable name="C(1757,49)" index="605184" value="1"/>
  <variable name="C(1804,17)" index="605398" value="1"/>
  <variable name="C(1804,47)" index="605399" value="2"/>
  <variable name="C(1839,52)" index="605531" value="1"/>
  <variable name="C(1839,32)" index="605532" value="2"/>
  <variable name="C(1853,49)" index="605578" value="1"/>
  <variable name="C(1853,50)" index="605579" value="2"/>
  <variable name="C(1870,48)" index="605654" value="1"/>
  <variable name="C(1870,49)" index="605655" value="2"/>
  <variable name="C(1870,15)" index="605656" value="3"/>
  <variable name="C(1872,47)" index="605661" value="3"/>
  <variable name="C(1872,17)" index="605662" value="4"/>
  <variable name="C(2053,49)" index="606304" value="1"/>
  <variable name="C(2053,30)" index="606305" value="2"/>
  <variable name="C(2071,1)" index="606369" value="1.0000000010000001"/>
  <variable name="C(2084,49)" index="606417" value="1"/>
  <variable name="C(2084,8)" index="606418" value="2"/>
  <variable name="C(2084,14)" index="606419" value="3"/>
  <variable name="C(2101,21)" index="606482" value="1"/>
  <variable name="C(2101,31)" index="606483" value="2"/>
 </variables>
</CPLEXSolution>
